set VV := 0 1 2 3 4 5 6 7 8 9 10 11 12 13 14 15 16 17 18 19 20 21 22 23 24 25 26 27 28 29 30 31 32 33 34 35 36 ;
set VS := 0 1 2 3 4 5 6 7 8 9 10 11 12 13 14 15 16 17 18 19 20 21 22 23 24 25 26 27 28 29 30 31 32 33 34 35 36 37 38 39 40 41 42 43 44 45 46 47 48 49 50 51 52 53 54 55 56 57 58 59 60 61 62 63 64 65 66 67 68 69 70 71 72 73 74 75 76 77 78 ;
param cv := 
0 17
1 20
2 17
3 16
4 16
5 14
6 24
7 12
8 24
9 11
10 16
11 20
12 24
13 12
14 23
15 19
16 24
17 17
18 15
19 15
20 18
21 22
22 21
23 25
24 17
25 20
26 12
27 19
28 21
29 24
30 23
31 23
32 22
33 19
34 17
35 14
36 18
;
param cs := 
0 37
1 37
2 40
3 21
4 24
5 24
6 37
7 21
8 34
9 40
10 22
11 27
12 30
13 25
14 34
15 26
16 30
17 24
18 24
19 35
20 38
21 30
22 27
23 33
24 29
25 23
26 32
27 32
28 28
29 36
30 28
31 22
32 27
33 25
34 29
35 34
36 25
37 36
38 34
39 39
40 28
41 34
42 29
43 26
44 21
45 26
46 28
47 28
48 37
49 24
50 23
51 38
52 28
53 29
54 28
55 22
56 28
57 36
58 32
59 33
60 24
61 32
62 38
63 34
64 31
65 30
66 32
67 36
68 20
69 37
70 39
71 32
72 32
73 35
74 22
75 32
76 37
77 30
78 36
;
param bv:	 0 1 2 3 4 5 6 7 8 9 10 11 12 13 14 15 16 17 18 19 20 21 22 23 24 25 26 27 28 29 30 31 32 33 34 35 36 := 
		0 0 0 0 0 0 0 0 0 0 0 0 0 0 25 0 0 0 23 0 0 0 0 0 0 0 0 0 0 0 0 0 0 0 0 0 0 0 
		1 0 0 0 0 11 0 0 0 0 0 0 0 0 0 0 0 0 0 0 21 0 20 0 0 0 20 0 0 0 0 0 0 0 0 0 0 0 
		2 0 0 0 0 0 0 0 0 0 0 0 0 0 0 0 0 0 0 0 0 14 0 23 0 0 0 0 0 0 0 0 0 0 0 24 0 0 
		3 0 0 0 0 0 0 0 0 0 0 0 0 0 0 0 0 0 0 0 0 0 0 0 13 0 0 0 0 0 0 0 0 0 0 0 0 0 
		4 0 0 0 0 0 0 0 0 0 0 0 0 0 25 0 0 0 0 0 0 0 0 0 0 0 0 0 0 0 0 0 0 0 0 0 25 0 
		5 0 0 0 0 0 0 0 24 24 0 0 0 0 0 12 0 0 0 0 0 0 0 0 0 0 0 0 0 0 0 0 21 0 0 0 0 0 
		6 0 0 0 0 0 0 0 0 0 19 11 16 0 0 0 0 0 0 0 17 0 0 0 0 0 15 0 10 0 10 0 11 0 0 0 21 0 
		7 0 0 0 0 0 0 0 0 0 0 0 16 0 0 0 0 0 12 21 0 0 0 0 15 0 23 0 13 0 0 0 0 0 22 0 0 0 
		8 0 0 0 0 0 0 0 0 0 0 18 16 0 0 0 0 0 0 0 0 0 0 0 0 0 0 0 0 18 0 0 0 15 0 0 0 0 
		9 0 0 0 0 0 0 0 0 0 0 0 0 0 0 16 19 0 0 0 0 0 0 0 0 0 0 17 0 0 0 0 0 19 0 0 0 24 
		10 0 0 0 0 0 0 0 0 0 0 0 11 0 0 0 0 0 0 0 21 0 0 0 0 0 0 16 0 0 24 0 0 0 0 10 0 0 
		11 0 0 0 0 0 0 0 0 0 0 0 0 0 17 0 10 0 10 0 0 0 0 0 0 0 0 0 0 0 15 0 0 0 19 0 0 0 
		12 0 0 0 0 0 0 0 0 0 0 0 0 0 0 0 0 0 0 0 0 0 24 0 0 14 0 0 0 12 0 0 0 0 0 0 0 0 
		13 0 0 0 0 0 0 0 0 0 0 0 0 0 0 0 0 0 0 0 0 0 0 0 0 0 0 0 0 17 0 0 0 0 0 0 19 0 
		14 0 0 0 0 0 0 0 0 0 0 0 0 0 0 0 0 0 0 0 0 0 13 0 0 0 0 0 0 0 15 0 0 0 0 0 0 0 
		15 0 0 0 0 0 0 0 0 0 0 0 0 0 0 0 0 0 19 0 0 0 0 0 0 0 10 0 0 0 0 0 0 0 0 0 0 0 
		16 0 0 0 0 0 0 0 0 0 0 0 0 0 0 0 0 0 0 0 0 0 0 0 0 0 0 0 0 0 0 0 0 0 0 0 16 11 
		17 0 0 0 0 0 0 0 0 0 0 0 0 0 0 0 0 0 0 0 0 0 0 0 0 0 20 0 0 0 0 0 21 0 0 24 0 0 
		18 0 0 0 0 0 0 0 0 0 0 0 0 0 0 0 0 0 0 0 0 0 0 0 0 0 0 0 0 0 0 0 0 0 0 0 0 0 
		19 0 0 0 0 0 0 0 0 0 0 0 0 0 0 0 0 0 0 0 0 0 0 25 0 0 0 0 0 0 0 0 0 0 0 0 15 0 
		20 0 0 0 0 0 0 0 0 0 0 0 0 0 0 0 0 0 0 0 0 0 22 0 0 0 0 0 0 0 0 0 0 0 0 0 20 0 
		21 0 0 0 0 0 0 0 0 0 0 0 0 0 0 0 0 0 0 0 0 0 0 0 0 20 0 0 0 0 0 0 0 0 0 0 0 0 
		22 0 0 0 0 0 0 0 0 0 0 0 0 0 0 0 0 0 0 0 0 0 0 0 0 0 22 0 0 17 0 0 0 0 0 0 0 0 
		23 0 0 0 0 0 0 0 0 0 0 0 0 0 0 0 0 0 0 0 0 0 0 0 0 0 0 0 0 0 0 10 0 0 0 0 0 0 
		24 0 0 0 0 0 0 0 0 0 0 0 0 0 0 0 0 0 0 0 0 0 0 0 0 0 0 0 0 0 0 0 0 25 0 0 0 0 
		25 0 0 0 0 0 0 0 0 0 0 0 0 0 0 0 0 0 0 0 0 0 0 0 0 0 0 0 0 0 0 0 0 0 0 0 0 0 
		26 0 0 0 0 0 0 0 0 0 0 0 0 0 0 0 0 0 0 0 0 0 0 0 0 0 0 0 0 0 0 0 0 21 25 0 0 0 
		27 0 0 0 0 0 0 0 0 0 0 0 0 0 0 0 0 0 0 0 0 0 0 0 0 0 0 0 0 0 0 0 0 0 22 23 0 0 
		28 0 0 0 0 0 0 0 0 0 0 0 0 0 0 0 0 0 0 0 0 0 0 0 0 0 0 0 0 0 0 0 0 0 0 0 0 0 
		29 0 0 0 0 0 0 0 0 0 0 0 0 0 0 0 0 0 0 0 0 0 0 0 0 0 0 0 0 0 0 0 0 0 0 0 0 0 
		30 0 0 0 0 0 0 0 0 0 0 0 0 0 0 0 0 0 0 0 0 0 0 0 0 0 0 0 0 0 0 0 0 0 0 0 0 0 
		31 0 0 0 0 0 0 0 0 0 0 0 0 0 0 0 0 0 0 0 0 0 0 0 0 0 0 0 0 0 0 0 0 0 0 0 0 0 
		32 0 0 0 0 0 0 0 0 0 0 0 0 0 0 0 0 0 0 0 0 0 0 0 0 0 0 0 0 0 0 0 0 0 0 0 0 0 
		33 0 0 0 0 0 0 0 0 0 0 0 0 0 0 0 0 0 0 0 0 0 0 0 0 0 0 0 0 0 0 0 0 0 0 0 20 0 
		34 0 0 0 0 0 0 0 0 0 0 0 0 0 0 0 0 0 0 0 0 0 0 0 0 0 0 0 0 0 0 0 0 0 0 0 0 0 
		35 0 0 0 0 0 0 0 0 0 0 0 0 0 0 0 0 0 0 0 0 0 0 0 0 0 0 0 0 0 0 0 0 0 0 0 0 0 
		36 0 0 0 0 0 0 0 0 0 0 0 0 0 0 0 0 0 0 0 0 0 0 0 0 0 0 0 0 0 0 0 0 0 0 0 0 0 
;
param bs:	 0 1 2 3 4 5 6 7 8 9 10 11 12 13 14 15 16 17 18 19 20 21 22 23 24 25 26 27 28 29 30 31 32 33 34 35 36 37 38 39 40 41 42 43 44 45 46 47 48 49 50 51 52 53 54 55 56 57 58 59 60 61 62 63 64 65 66 67 68 69 70 71 72 73 74 75 76 77 78 := 
		0 0 0 0 0 0 0 0 0 0 0 0 0 0 0 0 25 0 0 0 0 0 0 0 0 0 0 0 0 0 0 0 0 38 0 28 0 0 0 0 0 0 0 0 0 0 0 0 0 0 0 0 0 0 30 0 0 0 0 0 36 0 0 0 0 0 0 0 31 0 0 0 0 0 0 0 0 0 0 26 
		1 0 0 0 0 0 0 28 0 0 0 0 0 0 0 26 0 0 0 0 0 0 38 0 0 0 21 0 0 0 0 0 0 0 0 0 0 0 0 0 0 33 0 0 0 0 0 0 0 0 0 21 0 30 0 0 0 0 0 0 0 0 0 0 27 0 0 39 0 0 0 0 0 0 0 0 0 0 0 0 
		2 0 0 0 0 0 0 0 29 0 0 0 0 0 0 0 0 0 0 0 0 0 0 0 0 20 0 0 0 0 0 0 0 0 0 0 0 0 0 0 0 0 0 0 0 0 0 0 0 0 0 0 0 0 0 0 0 0 0 35 0 0 0 0 0 0 0 0 0 0 0 0 0 0 0 0 0 0 0 0 
		3 0 0 0 0 0 0 0 0 0 0 0 0 0 0 23 0 0 0 0 0 0 0 0 0 0 0 0 0 28 0 0 0 0 0 0 0 0 0 0 0 0 0 0 0 0 0 0 0 0 0 0 0 0 0 0 0 0 0 0 0 0 0 0 0 0 0 23 0 0 0 0 0 0 0 0 0 0 0 0 
		4 0 0 0 0 0 0 0 0 0 0 0 0 34 33 0 0 0 0 0 0 0 0 27 0 0 0 38 0 0 0 0 0 0 0 0 24 0 0 0 0 0 0 0 0 0 0 0 0 0 0 0 0 0 0 0 0 36 37 0 0 0 0 0 0 0 0 0 0 0 0 0 0 0 0 0 0 0 0 0 
		5 0 0 0 0 0 0 0 0 0 0 35 0 0 0 0 0 26 0 38 0 0 0 0 0 0 0 0 0 0 0 0 0 0 20 37 0 0 0 33 0 0 0 0 0 0 0 0 37 0 0 0 0 0 0 0 0 0 0 0 0 0 0 28 0 0 0 0 0 0 0 0 0 0 0 20 0 0 0 0 
		6 0 28 0 0 0 0 0 0 0 22 0 0 28 0 0 0 0 0 30 0 0 0 39 0 0 0 0 0 0 0 34 0 0 0 21 0 0 0 0 0 0 0 0 0 0 0 0 0 0 0 0 0 0 29 0 0 0 0 0 0 0 0 34 0 0 0 0 0 0 0 0 0 0 0 0 0 0 25 22 
		7 0 0 29 0 0 0 0 0 0 0 0 0 29 0 0 0 0 0 0 0 0 0 0 0 0 0 0 0 0 0 38 0 0 0 0 0 0 26 0 0 0 28 0 0 0 0 0 0 31 0 0 0 0 0 0 0 0 31 0 0 0 0 0 0 35 0 0 0 0 22 0 0 0 0 0 0 0 0 33 
		8 0 0 0 0 0 0 0 0 0 0 0 0 0 0 0 0 0 0 0 0 0 0 0 0 0 0 0 0 0 38 0 0 0 0 0 0 26 40 0 0 0 0 0 0 0 0 0 0 0 0 0 23 0 0 0 0 0 34 0 0 0 0 0 0 38 0 0 0 0 25 0 0 0 0 0 23 0 0 0 
		9 0 0 0 0 0 0 22 0 0 0 0 0 0 0 0 0 0 0 0 0 0 0 0 31 0 0 0 0 0 0 0 0 0 0 0 0 0 0 0 0 0 0 0 0 0 0 0 0 0 0 23 0 0 0 0 0 0 0 0 0 0 0 0 0 0 0 0 0 0 0 0 33 0 0 0 0 0 0 0 
		10 0 0 0 0 0 35 0 0 0 0 0 0 0 0 0 0 0 0 0 0 23 0 0 30 0 0 29 0 0 0 0 0 0 0 39 0 0 0 32 0 0 34 0 29 0 0 0 0 0 0 0 0 0 0 0 0 0 0 0 0 0 0 0 0 0 0 0 0 0 0 0 0 0 0 0 0 0 0 0 
		11 0 0 0 0 0 0 0 0 0 0 0 0 29 32 0 0 0 0 0 0 0 0 0 0 0 0 0 0 27 0 0 32 35 0 0 0 0 0 0 0 0 0 0 0 31 0 0 0 0 0 23 0 0 0 20 31 0 31 37 0 0 0 29 0 0 0 0 0 0 23 25 0 0 0 0 0 0 0 0 
		12 0 0 0 0 34 0 28 29 0 0 0 29 0 0 0 0 22 0 0 0 0 0 37 0 40 0 0 0 40 0 0 0 0 0 0 0 0 0 0 22 0 29 0 0 0 0 0 0 33 0 0 0 0 0 0 0 24 0 0 0 0 0 0 23 0 0 0 0 0 0 0 0 0 29 0 0 0 0 37 
		13 0 0 0 0 33 0 0 0 0 0 0 32 0 0 0 0 0 0 0 0 0 0 0 29 0 0 0 0 0 0 0 0 0 0 0 0 0 0 0 0 0 0 0 0 0 0 0 0 0 0 28 0 39 0 25 0 40 0 0 0 0 0 0 0 37 0 0 0 0 0 0 0 0 0 0 0 0 0 0 
		14 0 26 0 23 0 0 0 0 0 0 0 0 0 0 0 0 0 37 0 0 0 0 0 0 0 0 0 0 0 0 0 34 0 0 0 0 0 0 0 0 0 0 0 0 0 0 0 0 0 0 20 0 0 0 0 0 0 0 39 31 20 0 0 0 0 0 0 0 0 0 22 0 0 0 0 0 0 0 0 
		15 25 0 0 0 0 0 0 0 0 0 0 0 0 0 0 0 0 0 0 0 0 0 0 0 0 0 0 0 0 0 0 0 33 0 21 0 0 0 0 0 0 0 0 0 0 0 0 0 0 0 0 0 0 0 0 0 0 0 0 0 0 0 0 0 0 0 0 0 0 0 0 0 0 0 0 0 31 0 0 
		16 0 0 0 0 0 26 0 0 0 0 0 0 22 0 0 0 0 0 0 0 0 0 0 0 0 0 0 0 0 0 0 0 0 34 20 0 0 0 23 38 0 0 0 0 0 0 0 0 0 0 0 0 0 0 0 0 0 0 0 0 34 0 0 0 0 24 0 0 0 26 0 0 0 20 0 0 0 0 0 
		17 0 0 0 0 0 0 0 0 0 0 0 0 0 0 37 0 0 0 0 0 0 0 0 0 0 0 0 36 0 0 0 0 0 0 0 0 0 0 0 0 0 0 0 0 0 0 0 0 0 0 0 0 0 0 33 0 0 0 40 22 37 0 0 0 0 37 0 0 0 0 0 0 0 0 0 0 0 0 0 
		18 0 0 0 0 0 38 30 0 0 0 0 0 0 0 0 0 0 0 0 0 0 0 0 0 0 0 0 0 0 0 0 0 0 0 0 0 0 0 0 0 0 0 0 36 0 0 0 0 0 0 0 0 0 0 0 0 0 0 0 0 0 0 0 0 0 0 0 0 0 0 0 0 0 0 0 0 26 0 0 
		19 0 0 0 0 0 0 0 0 0 0 0 0 0 0 0 0 0 0 0 0 0 0 0 0 0 0 0 0 0 0 0 0 0 0 0 0 0 0 0 0 0 0 21 0 0 0 0 0 0 0 0 0 0 0 0 0 0 0 0 0 0 0 0 0 0 0 0 0 0 0 0 29 0 0 0 0 0 0 0 
		20 0 0 0 0 0 0 0 0 0 0 23 0 0 0 0 0 0 0 0 0 0 0 0 0 0 0 0 31 28 0 0 0 0 0 0 0 0 0 0 0 22 0 0 0 0 0 0 0 0 0 40 0 29 0 20 0 0 0 0 0 0 0 0 0 0 0 0 0 0 0 0 0 0 0 0 0 0 0 0 
		21 0 38 0 0 0 0 0 0 0 0 0 0 0 0 0 0 0 0 0 0 0 0 0 0 0 0 0 0 0 0 0 0 0 0 0 0 0 0 0 0 0 0 0 0 0 0 0 0 0 0 0 0 0 0 0 0 0 0 0 0 0 0 0 0 0 0 27 0 0 0 36 0 0 0 0 40 0 0 0 
		22 0 0 0 0 27 0 39 0 0 0 0 0 37 0 0 0 0 0 0 0 0 0 0 0 0 0 0 0 0 0 0 0 0 0 0 0 0 0 0 21 0 39 0 0 0 0 0 0 0 0 0 0 0 0 0 0 0 0 38 0 0 0 0 0 0 0 0 0 0 0 0 0 0 0 0 0 0 0 0 
		23 0 0 0 0 0 0 0 0 0 31 30 0 0 29 0 0 0 0 0 0 0 0 0 0 0 0 0 0 0 0 0 0 0 0 27 38 0 0 0 0 0 0 0 0 0 26 0 40 0 0 0 0 0 0 0 0 0 0 0 0 27 0 0 0 0 0 0 0 0 0 0 0 0 0 33 0 0 0 0 
		24 0 0 20 0 0 0 0 0 0 0 0 0 40 0 0 0 0 0 0 0 0 0 0 0 0 0 0 0 0 0 0 0 0 0 0 0 0 0 0 0 0 0 0 0 0 0 21 0 0 33 0 0 20 0 37 0 0 0 0 33 0 0 0 0 0 24 0 0 0 0 0 0 0 0 0 0 0 0 0 
		25 0 21 0 0 0 0 0 0 0 0 0 0 0 0 0 0 0 0 0 0 0 0 0 0 0 0 0 0 0 0 0 38 39 0 0 0 0 0 0 0 0 0 0 0 0 0 0 0 0 0 0 0 0 0 0 21 0 0 0 0 0 0 0 39 0 0 0 21 0 0 0 22 23 0 0 0 0 0 0 
		26 0 0 0 0 38 0 0 0 0 0 29 0 0 0 0 0 0 0 0 0 0 0 0 0 0 0 0 0 0 0 0 0 0 0 0 39 0 0 0 0 0 0 0 0 0 0 0 30 0 0 0 0 0 0 0 0 0 0 0 0 0 0 0 0 21 0 0 0 0 0 0 0 0 0 0 0 0 23 0 
		27 0 0 0 0 0 0 0 0 0 0 0 0 0 0 0 0 0 36 0 0 31 0 0 0 0 0 0 0 33 0 0 0 0 0 0 0 0 0 0 0 0 0 0 0 0 0 22 0 0 0 0 0 0 0 0 0 0 0 0 0 0 0 21 0 0 0 0 0 0 0 0 0 0 0 0 0 0 0 0 
		28 0 0 0 28 0 0 0 0 0 0 0 27 40 0 0 0 0 0 0 0 28 0 0 0 0 0 0 33 0 0 0 0 0 0 0 34 0 0 28 0 0 27 0 0 35 0 0 0 0 0 0 0 0 0 0 0 34 0 0 0 0 22 0 0 0 0 0 0 0 26 0 0 0 0 0 0 33 0 32 
		29 0 0 0 0 0 0 0 0 38 0 0 0 0 0 0 0 0 0 0 0 0 0 0 0 0 0 0 0 0 0 29 0 0 0 0 0 0 0 0 0 0 0 0 32 0 0 0 0 0 0 0 0 0 0 0 0 0 0 0 0 0 0 0 0 0 0 0 0 0 0 0 0 0 0 0 0 0 38 0 
		30 0 0 0 0 0 0 34 38 0 0 0 0 0 0 0 0 0 0 0 0 0 0 0 0 0 0 0 0 0 29 0 0 0 0 0 0 0 0 0 22 0 0 0 0 0 0 0 0 0 0 25 0 0 0 0 0 0 0 0 32 32 0 0 0 0 0 0 0 0 0 0 0 0 0 0 0 0 0 0 
		31 0 0 0 0 0 0 0 0 0 0 0 32 0 0 34 0 0 0 0 0 0 0 0 0 0 38 0 0 0 0 0 0 0 0 0 0 0 0 0 0 35 0 0 0 0 0 0 0 0 0 0 0 0 29 33 0 20 0 0 0 0 0 0 0 0 0 21 0 0 0 0 0 39 0 0 0 0 0 0 
		32 38 0 0 0 0 0 0 0 0 0 0 35 0 0 0 33 0 0 0 0 0 0 0 0 0 39 0 0 0 0 0 0 0 21 0 0 0 0 0 0 0 0 0 0 21 40 0 0 0 0 0 0 0 0 0 0 0 0 30 0 0 0 0 0 0 0 0 0 0 0 0 0 0 0 0 0 0 0 0 
		33 0 0 0 0 0 20 0 0 0 0 0 0 0 0 0 0 34 0 0 0 0 0 0 0 0 0 0 0 0 0 0 0 21 0 0 0 0 0 0 0 0 0 0 0 0 0 0 0 0 0 0 0 0 0 0 32 0 0 0 0 0 0 0 29 0 0 30 0 0 0 0 0 0 0 0 0 0 0 0 
		34 28 0 0 0 0 37 21 0 0 0 39 0 0 0 0 21 20 0 0 0 0 0 0 27 0 0 0 0 0 0 0 0 0 0 0 0 0 0 30 0 0 0 0 30 0 40 0 0 0 0 0 0 0 0 0 0 0 0 0 0 0 0 0 0 0 0 0 0 0 0 0 0 0 0 0 0 0 0 0 
		35 0 0 0 0 24 0 0 0 0 0 0 0 0 0 0 0 0 0 0 0 0 0 0 38 0 0 39 0 34 0 0 0 0 0 0 0 0 0 30 0 0 0 0 0 0 0 0 0 29 0 0 0 0 0 0 0 0 0 0 30 0 0 0 0 0 0 0 0 0 0 0 32 0 0 25 0 0 0 0 
		36 0 0 0 0 0 0 0 0 26 0 0 0 0 0 0 0 0 0 0 0 0 0 0 0 0 0 0 0 0 0 0 0 0 0 0 0 0 34 0 0 0 0 36 0 0 0 0 0 29 0 0 30 0 0 0 0 0 0 0 0 0 0 0 0 0 0 0 0 0 23 0 0 0 0 0 0 0 0 0 
		37 0 0 0 0 0 0 0 26 40 0 0 0 0 0 0 0 0 0 0 0 0 0 0 0 0 0 0 0 0 0 0 0 0 0 0 0 34 0 0 0 0 0 28 0 0 0 0 0 0 0 0 0 35 0 0 0 0 0 0 0 0 35 39 0 0 0 0 0 25 0 21 0 0 0 0 0 0 0 0 
		38 0 0 0 0 0 33 0 0 0 0 32 0 0 0 0 0 23 0 0 0 0 0 0 0 0 0 0 0 28 0 0 0 0 0 30 30 0 0 0 0 0 0 0 34 0 0 0 0 0 0 0 0 0 0 0 0 0 0 0 0 0 0 0 0 30 0 0 0 0 0 0 0 0 0 0 0 0 0 0 
		39 0 0 0 0 0 0 0 0 0 0 0 0 22 0 0 0 38 0 0 0 0 0 21 0 0 0 0 0 0 0 22 0 0 0 0 0 0 0 0 0 0 0 0 0 0 0 0 0 0 0 0 0 0 0 0 0 39 0 0 0 0 0 0 0 0 0 0 0 0 0 0 0 0 0 0 37 0 0 0 
		40 0 33 0 0 0 0 0 0 0 0 0 0 0 0 0 0 0 0 0 0 22 0 0 0 0 0 0 0 0 0 0 35 0 0 0 0 0 0 0 0 0 0 0 0 0 0 0 35 0 0 0 0 0 0 0 0 0 0 37 39 0 0 0 0 0 0 0 0 0 0 0 37 0 0 0 0 0 0 0 
		41 0 0 0 0 0 0 0 28 0 0 34 0 29 0 0 0 0 0 0 0 0 0 39 0 0 0 0 0 27 0 0 0 0 0 0 0 0 0 0 0 0 0 0 0 0 0 0 0 0 0 0 29 0 0 0 0 40 0 0 0 0 0 0 0 0 38 0 0 0 0 0 0 0 0 0 0 0 0 0 
		42 0 0 0 0 0 0 0 0 0 0 0 0 0 0 0 0 0 0 0 21 0 0 0 0 0 0 0 0 0 0 0 0 0 0 0 0 36 28 0 0 0 0 0 0 0 0 0 0 23 0 0 31 0 0 0 0 0 0 0 0 0 29 0 0 0 0 0 0 28 0 0 0 0 0 0 0 0 0 0 
		43 0 0 0 0 0 0 0 0 0 0 29 0 0 0 0 0 0 0 36 0 0 0 0 0 0 0 0 0 0 32 0 0 0 0 30 0 0 0 34 0 0 0 0 0 0 0 0 0 35 0 0 29 0 0 0 0 0 0 0 0 0 0 0 0 0 0 0 0 0 0 0 0 0 0 36 0 0 0 0 
		44 0 0 0 0 0 0 0 0 0 0 0 31 0 0 0 0 0 0 0 0 0 0 0 0 0 0 0 0 35 0 0 0 21 0 0 0 0 0 0 0 0 0 0 0 0 0 0 0 0 0 0 0 21 0 0 0 0 0 34 0 26 0 0 0 0 0 31 0 0 0 0 0 38 0 0 0 0 0 0 
		45 0 0 0 0 0 0 0 0 0 0 0 0 0 0 0 0 0 0 0 0 0 0 0 26 0 0 0 0 0 0 0 0 40 0 40 0 0 0 0 0 0 0 0 0 0 0 0 25 0 0 33 0 0 0 0 0 0 0 0 0 0 0 0 0 0 24 0 33 0 0 0 0 35 0 0 0 0 0 0 
		46 0 0 0 0 0 0 0 0 0 0 0 0 0 0 0 0 0 0 0 0 0 0 0 0 21 0 0 22 0 0 0 0 0 0 0 0 0 0 0 0 0 0 0 0 0 0 0 23 0 0 0 21 0 0 0 0 0 0 0 0 37 0 0 0 0 0 0 0 0 0 0 0 0 0 0 0 0 0 0 
		47 0 0 0 0 0 37 0 0 0 0 0 0 0 0 0 0 0 0 0 0 0 0 0 40 0 0 30 0 0 0 0 0 0 0 0 0 0 0 0 0 35 0 0 0 0 25 23 0 0 0 0 0 0 0 0 0 0 0 0 0 0 0 0 0 0 23 0 0 0 0 0 0 22 0 0 0 0 0 0 
		48 0 0 0 0 0 0 0 31 0 0 0 0 33 0 0 0 0 0 0 0 0 0 0 0 0 0 0 0 0 0 0 0 0 0 0 29 29 0 0 0 0 0 23 35 0 0 0 0 0 0 0 0 0 0 0 0 0 0 0 0 0 0 0 0 0 0 0 0 26 38 0 24 0 0 0 0 0 0 0 
		49 0 0 0 0 0 0 0 0 0 0 0 0 0 0 0 0 0 0 0 0 0 0 0 0 33 0 0 0 0 0 0 0 0 0 0 0 0 0 0 0 0 0 0 0 0 0 0 0 0 0 0 0 0 31 0 0 0 32 0 0 0 0 0 0 0 0 0 0 0 0 0 0 0 0 21 0 0 0 0 
		50 0 21 0 0 0 0 0 0 0 23 0 23 0 28 20 0 0 0 0 0 40 0 0 0 0 0 0 0 0 0 25 0 0 0 0 0 0 0 0 0 0 0 0 0 0 33 0 0 0 0 0 0 24 0 0 24 0 0 0 0 0 0 0 0 0 0 33 0 0 0 0 23 0 0 34 32 0 0 0 
		51 0 0 0 0 0 0 0 0 23 0 0 0 0 0 0 0 0 0 0 0 0 0 0 0 0 0 0 0 0 0 0 0 0 0 0 0 30 0 0 0 0 29 31 29 0 0 21 0 0 0 0 0 0 0 0 0 0 0 0 0 0 0 0 0 29 0 24 0 0 34 0 0 0 0 0 0 0 0 0 
		52 0 30 0 0 0 0 0 0 0 0 0 0 0 39 0 0 0 0 0 0 29 0 0 0 20 0 0 0 0 0 0 0 0 0 0 0 0 35 0 0 0 0 0 0 21 0 0 0 0 0 24 0 0 0 32 0 0 0 0 0 0 0 0 0 0 0 0 0 21 0 0 0 0 0 0 0 0 0 0 
		53 30 0 0 0 0 0 29 0 0 0 0 0 0 0 0 0 0 0 0 0 0 0 0 0 0 0 0 0 0 0 0 29 0 0 0 0 0 0 0 0 0 0 0 0 0 0 0 0 0 31 0 0 0 0 0 0 0 0 0 0 0 0 0 0 0 0 0 0 0 0 0 0 0 0 31 0 20 0 0 
		54 0 0 0 0 0 0 0 0 0 0 0 20 0 25 0 0 0 33 0 0 20 0 0 0 37 0 0 0 0 0 0 33 0 0 0 0 0 0 0 0 0 0 0 0 0 0 0 0 0 0 0 0 32 0 0 24 0 0 30 0 0 0 0 0 0 0 0 34 0 0 0 0 0 24 0 0 0 0 34 
		55 0 0 0 0 0 0 0 0 0 0 0 31 0 0 0 0 0 0 0 0 0 0 0 0 0 21 0 0 0 0 0 0 0 32 0 0 0 0 0 0 0 0 0 0 0 0 0 0 0 0 24 0 0 0 24 0 0 0 0 0 31 0 0 0 0 0 0 0 0 0 25 0 0 0 0 0 0 0 0 
		56 0 0 0 0 36 0 0 0 0 0 0 0 24 40 0 0 0 0 0 0 0 0 0 0 0 0 0 0 34 0 0 20 0 0 0 0 0 0 0 39 0 40 0 0 0 0 0 0 0 0 0 0 0 0 0 0 0 0 27 40 0 0 0 0 0 24 0 0 0 0 0 0 29 0 0 0 0 0 0 
		57 0 0 0 0 37 0 0 31 34 0 0 31 0 0 0 0 0 0 0 0 0 0 0 0 0 0 0 0 0 0 0 0 0 0 0 0 0 0 0 0 0 0 0 0 0 0 0 0 0 32 0 0 0 0 0 0 0 0 0 0 0 0 0 0 0 0 0 0 0 0 0 0 0 0 0 0 0 0 0 
		58 0 0 35 0 0 0 0 0 0 0 0 37 0 0 39 0 0 40 0 0 0 0 38 0 0 0 0 0 0 0 0 0 30 0 0 0 0 0 0 0 37 0 0 0 34 0 0 0 0 0 0 0 0 0 30 0 27 0 0 0 0 0 0 0 0 31 0 0 0 0 0 0 0 0 0 0 0 0 37 
		59 36 0 0 0 0 0 0 0 0 0 0 0 0 0 31 0 0 22 0 0 0 0 0 0 33 0 0 0 0 0 32 0 0 0 0 30 0 0 0 0 39 0 0 0 0 0 0 0 0 0 0 0 0 0 0 0 40 0 0 0 27 0 0 0 0 0 0 0 0 0 0 0 0 0 0 0 0 0 0 
		60 0 0 0 0 0 0 0 0 0 0 0 0 0 0 20 0 34 37 0 0 0 0 0 27 0 0 0 0 0 0 32 0 0 0 0 0 0 0 0 0 0 0 0 0 26 0 37 0 0 0 0 0 0 0 0 31 0 0 0 27 0 0 0 0 0 25 0 0 0 0 0 0 0 0 0 0 0 0 0 
		61 0 0 0 0 0 0 0 0 0 0 0 0 0 0 0 0 0 0 0 0 0 0 0 0 0 0 0 0 22 0 0 0 0 0 0 0 0 35 0 0 0 0 29 0 0 0 0 0 0 0 0 0 0 0 0 0 0 0 0 0 0 0 0 0 0 0 0 0 40 0 0 0 0 0 0 0 0 21 0 
		62 0 0 0 0 0 28 34 0 0 0 0 29 0 0 0 0 0 0 0 0 0 0 0 0 0 0 0 21 0 0 0 0 0 0 0 0 0 39 0 0 0 0 0 0 0 0 0 0 0 0 0 0 0 0 0 0 0 0 0 0 0 0 0 0 0 28 0 29 0 31 0 0 0 0 0 0 0 0 37 
		63 0 27 0 0 0 0 0 0 0 0 0 0 23 0 0 0 0 0 0 0 0 0 0 0 0 39 0 0 0 0 0 0 0 29 0 0 0 0 0 0 0 0 0 0 0 0 0 0 0 0 0 0 0 0 0 0 0 0 0 0 0 0 0 0 0 0 0 0 34 0 25 0 0 0 0 38 0 0 0 
		64 0 0 0 0 0 0 0 35 38 0 0 0 0 37 0 0 0 0 0 0 0 0 0 0 0 0 21 0 0 0 0 0 0 0 0 0 0 0 30 0 0 0 0 0 0 0 0 0 0 0 0 29 0 0 0 0 0 0 0 0 0 0 0 0 0 0 0 0 0 0 0 0 0 0 0 0 0 24 0 
		65 0 0 0 0 0 0 0 0 0 0 0 0 0 0 0 0 24 37 0 0 0 0 0 0 24 0 0 0 0 0 0 0 0 0 0 0 0 0 0 0 0 38 0 0 0 24 0 23 0 0 0 0 0 0 0 0 24 0 31 0 25 0 28 0 0 0 0 0 0 0 0 0 0 0 0 0 0 0 0 
		66 0 39 0 23 0 0 0 0 0 0 0 0 0 0 0 0 0 0 0 0 0 27 0 0 0 0 0 0 0 0 0 21 0 30 0 0 0 0 0 0 0 0 0 0 31 0 0 0 0 0 33 24 0 0 0 0 0 0 0 0 0 0 0 0 0 0 0 0 0 0 0 28 0 0 0 0 0 0 0 
		67 31 0 0 0 0 0 0 0 0 0 0 0 0 0 0 0 0 0 0 0 0 0 0 0 0 21 0 0 0 0 0 0 0 0 0 0 0 0 0 0 0 0 0 0 0 33 0 0 0 0 0 0 0 0 34 0 0 0 0 0 0 0 29 0 0 0 0 0 0 0 0 0 0 0 0 0 0 0 0 
		68 0 0 0 0 0 0 0 0 0 0 0 0 0 0 0 0 0 0 0 0 0 0 0 0 0 0 0 0 0 0 0 0 0 0 0 0 0 25 0 0 0 0 28 0 0 0 0 0 26 0 0 0 21 0 0 0 0 0 0 0 0 40 0 34 0 0 0 0 0 0 0 0 0 0 0 0 0 24 0 
		69 0 0 0 0 0 0 0 22 25 0 0 23 0 0 0 0 26 0 0 0 0 0 0 0 0 0 0 0 26 0 0 0 0 0 0 0 23 0 0 0 0 0 0 0 0 0 0 0 38 0 0 34 0 0 0 0 0 0 0 0 0 0 31 0 0 0 0 0 0 0 0 33 0 0 0 0 0 0 0 
		70 0 0 0 0 0 0 0 0 0 0 0 25 0 0 22 0 0 0 0 0 0 36 0 0 0 0 0 0 0 0 0 0 0 0 0 0 0 21 0 0 0 0 0 0 0 0 0 0 0 0 0 0 0 0 0 25 0 0 0 0 0 0 0 25 0 0 0 0 0 0 0 27 0 0 0 0 0 0 0 
		71 0 0 0 0 0 0 0 0 0 33 0 0 0 0 0 0 0 0 0 29 0 0 0 0 0 22 0 0 0 0 0 0 0 0 0 32 0 0 0 0 37 0 0 0 0 0 0 0 24 0 23 0 0 0 0 0 0 0 0 0 0 0 0 0 0 0 28 0 0 33 27 0 0 0 0 0 0 0 0 
		72 0 0 0 0 0 0 0 0 0 0 0 0 0 0 0 0 0 0 0 0 0 0 0 0 0 23 0 0 0 0 0 39 0 0 0 0 0 0 0 0 0 0 0 0 38 35 0 22 0 0 0 0 0 0 0 0 29 0 0 0 0 0 0 0 0 0 0 0 0 0 0 0 0 0 0 0 0 0 0 
		73 0 0 0 0 0 0 0 0 0 0 0 0 29 0 0 0 20 0 0 0 0 0 0 0 0 0 0 0 0 0 0 0 0 0 0 0 0 0 0 0 0 0 0 0 0 0 0 0 0 0 0 0 0 0 24 0 0 0 0 0 0 0 0 0 0 0 0 0 0 0 0 0 0 0 0 0 0 0 25 
		74 0 0 0 0 0 20 0 0 0 0 0 0 0 0 0 0 0 0 0 0 0 0 0 33 0 0 0 0 0 0 0 0 0 0 0 25 0 0 0 0 0 0 0 36 0 0 0 0 0 21 34 0 0 31 0 0 0 0 0 0 0 0 0 0 0 0 0 0 0 0 0 0 0 0 0 0 0 0 0 
		75 0 0 0 0 0 0 0 0 23 0 0 0 0 0 0 0 0 0 0 0 0 40 0 0 0 0 0 0 0 0 0 0 0 0 0 0 0 0 0 37 0 0 0 0 0 0 0 0 0 0 32 0 0 0 0 0 0 0 0 0 0 0 0 38 0 0 0 0 0 0 0 0 0 0 0 0 0 0 0 
		76 0 0 0 0 0 0 0 0 0 0 0 0 0 0 0 31 0 0 26 0 0 0 0 0 0 0 0 0 33 0 0 0 0 0 0 0 0 0 0 0 0 0 0 0 0 0 0 0 0 0 0 0 0 20 0 0 0 0 0 0 0 0 0 0 0 0 0 0 0 0 0 0 0 0 0 0 0 0 0 
		77 0 0 0 0 0 0 25 0 0 0 0 0 0 0 0 0 0 0 0 0 0 0 0 0 0 0 23 0 0 38 0 0 0 0 0 0 0 0 0 0 0 0 0 0 0 0 0 0 0 0 0 0 0 0 0 0 0 0 0 0 0 21 0 0 24 0 0 0 24 0 0 0 0 0 0 0 0 0 0 
		78 26 0 0 0 0 0 22 33 0 0 0 0 37 0 0 0 0 0 0 0 0 0 0 0 0 0 0 0 32 0 0 0 0 0 0 0 0 0 0 0 0 0 0 0 0 0 0 0 0 0 0 0 0 0 34 0 0 0 37 0 0 0 37 0 0 0 0 0 0 0 0 0 0 25 0 0 0 0 0 
;
